NAME 
ROWS
 N  OBJ
 L  R0      
 L  R1      
 E  R2      
COLUMNS
    MARKER    'MARKER'                 'INTORG'
    I0(3)     OBJ       -496
    I0(3)     R0        -765
    I0(3)     R1        -971
    I0(3)     R2        238
    I1(3)     OBJ       -405
    I1(3)     R0        -699
    I1(3)     R1        -971
    I1(3)     R2        207
    I2(3)     OBJ       -274
    I2(3)     R0        -474
    I2(3)     R1        -849
    I2(3)     R2        706
    I3(3)     OBJ       -511
    I3(3)     R0        -39
    I3(3)     R1        -445
    I3(3)     R2        87
    I4(3)     OBJ       -687
    I4(3)     R0        -210
    I4(3)     R1        -9
    I4(3)     R2        651
    I5(3)     OBJ       -223
    I5(3)     R0        -161
    I5(3)     R1        -59
    I5(3)     R2        715
    I6(3)     OBJ       -281
    I6(3)     R0        -261
    I6(3)     R1        -605
    I6(3)     R2        145
    I7(3)     OBJ       -982
    I7(3)     R0        -490
    I7(3)     R1        -270
    I7(3)     R2        255
    I8(3)     OBJ       -120
    I8(3)     R0        -142
    I8(3)     R1        -548
    I8(3)     R2        984
    I9(3)     OBJ       -372
    I9(3)     R0        -381
    I9(3)     R1        -746
    I9(3)     R2        693
    I10(3)    OBJ       -310
    I10(3)    R0        -862
    I10(3)    R1        -650
    I10(3)    R2        1
    I11(3)    OBJ       -38
    I11(3)    R0        -451
    I11(3)    R1        -409
    I11(3)    R2        634
    I12(3)    OBJ       -858
    I12(3)    R0        -418
    I12(3)    R1        -197
    I12(3)    R2        102
    I13(3)    OBJ       -998
    I13(3)    R0        -719
    I13(3)    R1        -68
    I13(3)    R2        197
    I14(3)    OBJ       -946
    I14(3)    R0        -448
    I14(3)    R1        -128
    I14(3)    R2        701
    I15(3)    OBJ       -351
    I15(3)    R0        -363
    I15(3)    R1        -644
    I15(3)    R2        230
    I16(3)    OBJ       -944
    I16(3)    R0        -70
    I16(3)    R1        -431
    I16(3)    R2        840
    I17(3)    OBJ       -739
    I17(3)    R0        -392
    I17(3)    R1        -198
    I17(3)    R2        131
    I18(3)    OBJ       -432
    I18(3)    R0        -102
    I18(3)    R1        -36
    I18(3)    R2        428
    I19(3)    OBJ       -12
    I19(3)    R0        -502
    I19(3)    R1        -532
    I19(3)    R2        875
    I20(3)    OBJ       -160
    I20(3)    R0        -403
    I20(3)    R1        -700
    I20(3)    R2        662
    I21(3)    OBJ       -239
    I21(3)    R0        -262
    I21(3)    R1        -438
    I21(3)    R2        127
    I22(3)    OBJ       -301
    I22(3)    R0        -741
    I22(3)    R1        -794
    I22(3)    R2        313
    I23(3)    OBJ       -279
    I23(3)    R0        -704
    I23(3)    R1        -440
    I23(3)    R2        455
    I24(3)    OBJ       -350
    I24(3)    R0        -541
    I24(3)    R1        -141
    I24(3)    R2        566
    I25(3)    OBJ       -244
    I25(3)    R0        -90
    I25(3)    R1        -334
    I25(3)    R2        454
    I26(3)    OBJ       -362
    I26(3)    R0        -948
    I26(3)    R1        -529
    I26(3)    R2        789
    I27(3)    OBJ       -117
    I27(3)    R0        -902
    I27(3)    R1        -88
    I27(3)    R2        95
    I28(3)    OBJ       -203
    I28(3)    R0        -206
    I28(3)    R1        -236
    I28(3)    R2        542
    I29(3)    OBJ       -70
    I29(3)    R0        -150
    I29(3)    R1        -735
    I29(3)    R2        24
    I30(1)    R2        1
    MARKER    'MARKER'                 'INTEND'
RHS
    RHS1      R0        -9068
    RHS1      R1        -9198
    RHS1      R2        6423
BOUNDS
 UP BND1      I0(3)     1
 UP BND1      I1(3)     1
 UP BND1      I2(3)     1
 UP BND1      I3(3)     1
 UP BND1      I4(3)     1
 UP BND1      I5(3)     1
 UP BND1      I6(3)     1
 UP BND1      I7(3)     1
 UP BND1      I8(3)     1
 UP BND1      I9(3)     1
 UP BND1      I10(3)    1
 UP BND1      I11(3)    1
 UP BND1      I12(3)    1
 UP BND1      I13(3)    1
 UP BND1      I14(3)    1
 UP BND1      I15(3)    1
 UP BND1      I16(3)    1
 UP BND1      I17(3)    1
 UP BND1      I18(3)    1
 UP BND1      I19(3)    1
 UP BND1      I20(3)    1
 UP BND1      I21(3)    1
 UP BND1      I22(3)    1
 UP BND1      I23(3)    1
 UP BND1      I24(3)    1
 UP BND1      I25(3)    1
 UP BND1      I26(3)    1
 UP BND1      I27(3)    1
 UP BND1      I28(3)    1
 UP BND1      I29(3)    1
 LI BND1      I30(1)    0
ENDATA
